WARNING: for repeatability, setting FPU to use double precision
============================[ Problem Statistics ]=============================
|                                                                             |
|  Number of variables:            50                                         |
|  Number of clauses:             218                                         |
|  Parse time:                   0.00 s                                       |
|                                                                             |
============================[ Search Statistics ]==============================
| Conflicts |          ORIGINAL         |          LEARNT          | Progress |
|           |    Vars  Clauses Literals |    Limit  Clauses Lit/Cl |          |
===============================================================================
===============================================================================
restarts              : 1
conflicts             : 66             (43564 /sec)
decisions             : 79             (0.00 % random) (52145 /sec)
propagations          : 975            (643564 /sec)
conflict literals     : 248            (18.69 % deleted)
Memory used           : 20.00 MB
CPU time              : 0.001515 s

UNSATISFIABLE
